42      4       
10      10      7       10      
0       0       0       0       0       3       2       3       4       
5       6       0       0       0       1       7       
6       0       10      0       0       1       8       
2       0       0       3       0       2       5       18      
2       0       0       4       0       1       6       
8       0       0       1       0       1       19      
9       0       0       2       0       1       12      
5       0       0       0       7       1       9       
2       0       0       0       10      1       10      
2       0       0       2       0       1       11      
8       0       0       0       8       2       12      17      
8       2       0       0       0       1       13      
4       0       0       0       7       1       14      
7       0       2       0       0       1       15      
8       0       0       0       2       1       16      
7       2       0       0       0       1       18      
1       3       0       0       0       1       20      
7       0       0       7       0       1       21      
9       0       0       0       2       1       22      
9       5       0       0       0       1       24      
9       10      0       0       0       2       23      29      
3       0       0       0       8       1       28      
6       9       0       0       0       2       25      38      
10      0       0       2       0       1       27      
4       0       0       0       2       1       26      
3       10      0       0       0       1       30      
9       0       0       0       2       1       32      
4       0       7       0       0       1       29      
9       0       0       3       0       1       36      
2       0       3       0       0       1       31      
7       2       0       0       0       1       33      
5       0       0       5       0       1       35      
3       4       0       0       0       1       34      
2       6       0       0       0       1       39      
6       0       4       0       0       1       37      
7       0       0       0       2       1       41      
4       0       0       7       0       1       38      
9       0       10      0       0       1       40      
7       0       0       0       2       1       42      
5       0       0       0       2       1       42      
2       0       0       6       0       1       42      
0       0       0       0       0       0       
